NAME : u574.tour
COMMENT : Optimum tour for u574.tsp (Length 36905)
TYPE : TOUR
DIMENSION : 574
TOUR_SECTION
193
191
192
262
263
274
275
276
277
278
279
280
281
282
283
284
188
187
186
185
184
183
182
181
180
285
286
287
288
289
290
291
292
293
294
295
296
297
298
299
302
303
304
305
306
307
308
309
301
300
311
310
312
313
314
315
316
317
319
318
320
321
322
323
324
325
326
328
329
327
330
331
332
333
334
335
336
337
342
343
344
346
345
370
371
341
340
338
339
372
373
374
375
378
381
380
379
269
268
267
266
270
271
272
273
264
265
389
390
388
387
386
384
383
385
382
377
376
365
366
367
368
369
347
348
349
351
350
352
364
363
362
361
407
406
408
409
410
411
359
360
353
354
355
356
358
357
412
413
414
415
416
417
418
419
420
421
422
423
424
425
426
427
428
429
439
438
437
440
436
435
434
430
431
432
433
446
445
441
444
447
443
442
453
452
454
455
451
456
450
448
449
401
400
399
398
402
403
404
405
394
393
392
391
261
260
259
258
257
255
256
395
397
396
461
462
463
460
458
459
457
468
469
467
466
465
464
254
253
251
252
475
476
474
470
471
473
472
482
483
484
485
486
487
488
489
490
492
491
496
495
494
493
497
498
499
500
501
502
503
504
505
511
512
510
509
508
506
507
481
480
479
478
514
513
477
515
516
517
518
519
247
246
245
244
521
520
522
523
524
525
528
527
526
534
535
533
532
531
530
529
536
537
538
539
540
542
541
543
544
545
14
13
546
547
548
549
550
551
552
553
554
12
11
10
9
8
7
558
557
556
555
559
560
561
562
563
6
5
4
3
2
564
565
566
567
570
569
568
1
574
573
572
571
48
49
50
51
52
53
47
46
45
44
54
55
57
58
59
60
78
77
75
76
61
62
63
64
65
129
130
128
127
66
67
68
69
71
72
73
74
115
117
116
70
126
125
124
132
131
133
134
135
136
137
138
139
140
141
142
143
144
146
151
152
150
149
148
147
145
96
100
101
99
97
98
123
122
121
120
119
118
114
113
111
112
84
83
82
81
79
56
80
43
42
41
40
39
38
37
36
87
86
85
110
109
108
107
106
105
102
103
104
95
94
93
92
91
90
89
88
29
28
30
27
26
165
25
24
23
22
21
19
32
31
35
34
33
20
18
17
15
16
222
221
220
219
218
217
216
212
215
214
213
166
167
154
155
164
163
162
161
160
156
159
158
157
153
168
169
170
171
172
173
174
175
176
177
178
179
210
211
233
232
209
208
238
239
207
206
205
240
237
236
235
234
231
230
229
228
227
223
224
225
226
241
242
243
204
203
202
248
249
201
200
199
198
250
197
195
196
189
190
194
-1
EOF
